2-dimensional/CL_03_25_03.vbp
2
1000 1000 
25
630 710 30
234 641 72
275 376 4
287 448 88
602 391 54
555 537 64
279 221 90
706 775 26
571 733 94
606 629 28
545 595 72
321 365 49
668 472 54
718 449 19
406 631 28
465 349 61
627 339 84
226 332 23
597 262 67
271 263 53
382 668 54
464 210 16
249 223 9
272 439 54
666 793 77
