datasets/2-dimensional-benchmark/CL_03_25_03.txt
1000 1000 
0 30 630 710 
1 72 234 641 
2 4 275 376 
3 88 287 448 
4 54 602 391 
5 64 555 537 
6 90 279 221 
7 26 706 775 
8 94 571 733 
9 28 606 629 
10 72 545 595 
11 49 321 365 
12 54 668 472 
13 19 718 449 
14 28 406 631 
15 61 465 349 
16 84 627 339 
17 23 226 332 
18 67 597 262 
19 53 271 263 
20 54 382 668 
21 16 464 210 
22 9 249 223 
23 54 272 439 
24 77 666 793 
